100
300
50
0 0
67 14
62 48
17 34
28 85
77 32
18 5
90 43
15 4
85 33
69 25
75 20
22 0
61 11
37 2
62 86
97 86
68 4
88 16
28 74
19 4
81 47
66 88
88 87
78 58
79 80
84 21
53 47
38 59
61 40
77 74
45 29
90 9
54 4
85 56
20 11
35 45
55 47
22 35
84 31
73 49
77 51
96 51
39 2
29 83
21 44
62 46
81 70
51 51
84 76
61 32
0 0
70
70
30
70
70
30
40
50
40
50
40
50
30
30
30
70
60
40
30
30
40
30
40
50
30
70
70
30
70
70
30
40
50
40
50
40
50
30
30
30
70
60
40
30
30
40
30
40
50
30
